Version identifier: 12.10.0.0 | 2019-11-26 | 843d4de
CPXPARAM_WorkMem                                 28672
Tried aggregator 2 times.
Aggregator did 45 substitutions.
Reduced MIP has 245 rows, 300 columns, and 1130 nonzeros.
Reduced MIP has 300 binaries, 0 generals, 0 SOSs, and 0 indicators.
Presolve time = 0,00 sec. (1,08 ticks)
Found incumbent of value 225,000000 after 0,00 sec. (1,77 ticks)
Probing time = 0,00 sec. (0,43 ticks)
Tried aggregator 1 time.
Detecting symmetries...
MIP Presolve eliminated 60 rows and 0 columns.
MIP Presolve added 120 rows and 0 columns.
Reduced MIP has 305 rows, 300 columns, and 1190 nonzeros.
Reduced MIP has 300 binaries, 0 generals, 0 SOSs, and 0 indicators.
Presolve time = 0,00 sec. (1,52 ticks)
Probing time = 0,00 sec. (0,42 ticks)
Clique table members: 770.
MIP emphasis: balance optimality and feasibility.
MIP search method: dynamic search.
Parallel mode: deterministic, using up to 16 threads.
Root relaxation solution time = 0,00 sec. (1,23 ticks)

        Nodes                                         Cuts/
   Node  Left     Objective  IInf  Best Integer    Best Bound    ItCnt     Gap

*     0+    0                          225,0000        0,0000           100,00%
*     0+    0                          104,0000        0,0000           100,00%
*     0+    0                           99,0000        0,0000           100,00%
*     0+    0                           96,0000        0,0000           100,00%
      0     0       45,0000   121       96,0000       45,0000      120   53,12%
      0     0       45,0000   121       96,0000     Cuts: 176      208   53,12%
      0     0       45,0000   121       96,0000     Cuts: 176      280   53,12%
*     0+    0                           90,0000       45,0000            50,00%
      0     2       49,6643   216       90,0000       45,0000      359   50,00%
Elapsed time = 0,10 sec. (50,32 ticks, tree = 0,02 MB, solutions = 5)
*  2136+ 1141                           89,0000       64,8347            27,15%
*  2537+ 1360                           87,0000       70,6915            18,75%
   4243   698        cutoff             87,0000       82,6208   125540    5,03%

Clique cuts applied:  33
Cover cuts applied:  318
Mixed integer rounding cuts applied:  21
Zero-half cuts applied:  6
Gomory fractional cuts applied:  4

Root node processing (before b&c):
  Real time             =    0,10 sec. (50,12 ticks)
Parallel b&c, 16 threads:
  Real time             =    0,42 sec. (259,67 ticks)
  Sync time (average)   =    0,15 sec.
  Wait time (average)   =    0,00 sec.
                          ------------
Total (root+branch&cut) =    0,52 sec. (309,78 ticks)
